NAME : eil101.tsp
TYPE : TOUR
DIMENSION : 101
TOUR_LENGTH : 687.2277435621671
TOUR_SECTION
1
69
27
28
26
12
76
50
33
81
51
9
35
71
65
66
20
30
70
31
88
7
82
48
47
19
62
10
32
90
63
11
64
49
36
46
8
45
17
84
5
60
83
18
52
89
6
94
95
97
92
59
96
99
93
98
37
100
91
85
61
16
86
38
44
14
87
42
43
15
57
2
13
101
53
58
40
21
73
72
74
22
41
75
56
23
67
39
25
55
24
29
34
78
79
3
77
68
80
54
4
-1
